10
0 75 37 49 34 5 30 19 29 55 
98 0 86 67 34 30 90 61 74 40 
100 43 0 40 63 12 39 72 90 83 
13 59 31 0 94 44 52 82 14 24 
73 2 35 65 0 9 95 86 93 96 
73 8 14 30 68 0 15 2 27 60 
67 43 47 99 38 5 0 57 13 51 
17 25 79 33 47 55 63 0 86 7 
46 54 18 29 60 71 10 75 0 14 
16 32 87 100 27 65 21 39 23 0 
